
 102   30
  10   10   10   10   10   10   10   10   10   10   10   10   10   10   10   10   10   10   10   10   10   10   10   10   10   10   10   10   10   10

   0   0   0   0   0   0   0   0   0   0   0   0   0   0   0   0   0   0   0   0   0   0   0   0   0   0   0   0   0   0   0  22 2 3 4 5 6 7 8 9 11 12 13 14 15 16 17 20 21 23 27 28 29 30 
   8   0   0   0   2   0   0   0   0   0   0   0   0   0   1   0   0   0   0   0   0   0   0   0   0   0   0   0   0   2   0   9 52 47 44 43 37 26 25 19 10 
   2   3   0   0   0   0   0   0   0   0   0   0   0   3   0   0   1   2   0   0   0   0   0   0   0   2   0   0   1   0   0  16 72 67 54 53 49 47 41 40 39 38 36 34 32 24 22 18 
  10   3   0   0   0   0   0   4   0   0   0   0   0   6   0   0   0   0   0   0   1   0   0   0   0   0   0   0   0   0   0  22 96 94 72 70 66 65 64 63 62 61 59 55 53 52 51 50 49 48 46 43 42 35 
   8   0   0   0   0   0   0   0   0   0   0   0   0   2   4   0   0   0   0   0   0   0   0   0   0   0   0   0   0   0   0  15 100 99 72 71 66 61 60 55 53 51 50 49 47 39 25 
   5   0   0   0   0   0   0   0   0   0   1   0   0   0   0   0   0   0   1   0   0   0   0   0   0   5   0   0   0   4   0  18 99 96 94 88 72 71 65 62 59 58 56 54 51 49 46 43 38 36 
  10   0   0   0   0   2   0   0   2   0   0   0   0   0   0   0   0   0   0   3   0   1   0   0   0   0   0   1   0   0   0  16 101 98 93 73 72 71 70 67 61 60 57 56 44 42 37 31 
   7   0   0   0   0   0   0   0   0   0   0   0   0   0   0   0   0   0   0   0   0   0   0   0   0   0   0   0   6   0   0   9 100 90 72 65 57 50 46 38 22 
   2   0   0   0   0   0   0   0   0   0   0   0   0   0   0   1   0   0   0   0   0   0   3   0   0   0   0   0   0   0   0  21 98 97 96 95 94 93 88 73 71 70 65 64 63 60 59 57 53 51 50 49 44 
   9   0   0   2   0   0   0   0   0   0   0   0   0   0   0   0   0   0   0   0   0   0   0   0   0   0   0   0   6   7   0  17 100 98 97 95 94 93 72 67 63 60 59 53 51 50 49 38 33 
   6   0   0   0   0   0   2   0   7   0   0   0   1   5   0   0   4   0   0   4   0   0   0   0   0   0   0   0   0   0   0  19 100 99 97 96 94 93 90 88 72 65 63 60 59 56 54 53 50 49 38 
   6   0   2   0   0   0   0   0   9   0   0   0   0   5   0   0   0   0   0   0   0   0   0   0   0   0   0   0   0   0   0  18 99 98 96 94 89 87 73 72 70 67 65 64 58 50 47 45 43 36 
   9   0   0   0   4   0   0   0   0   0   5   2   0   0   0   0   8   0   0   0   0   0   0   0   3   0   0   0   0   0   0  14 88 73 72 71 70 66 64 58 57 56 55 46 39 36 
   9   0   5   0   7   0   0   5   5   0   0   0   0   0   0   8   0   0   0   0   0   0   0   0   0   0   0   0   0   0   0  17 100 98 95 91 73 70 66 65 64 63 59 58 57 52 48 47 41 
   9   8   0   0   0   0   0   0   0   0   4   0   5   0   0   7   0   0   0   0   0   0   0   0   0   0   2   0   0   0   0  19 100 99 98 96 95 94 93 92 91 90 89 80 70 66 64 57 53 49 45 
   7   0   0   0   0   0   0   0   6   0   0   0   0   0   0   0   0   0   0  10   0   4   2   0   0   0   0   0   0   0   0   8 96 95 92 91 72 53 48 25 
   2   0   0   0   0   0   0   0   0   0   0   0   0   0   0   0   0   0   0   0   0   0   0   0   6   0   0  10   0   0   0  19 101 97 96 95 94 93 90 88 87 86 79 70 65 63 60 59 58 57 54 
   3   0   0   0   0   0   0   0   0   0   0   0   0   0   0   5   7   0   0   0   5   0   0   0   5   0   0   0   0   0   0  18 99 98 96 95 94 93 91 90 89 88 87 73 64 63 59 50 43 42 
   3   0   0   0   0   7   0   0   0   0   0   0   0   0   0   8   0   0   0   0   0   5   0   0   0   0   0   5   0   0   2  17 101 97 94 93 91 90 88 79 73 70 66 59 57 56 54 53 42 
   3   0   0   0   0   0   0   0   0   0   0   0   7   0   0   0   0   0   0   0   0   0   4   0   0   0   0   0   0   0   4  15 101 100 95 93 92 91 89 87 70 67 65 64 63 57 34 
   3   0   0   0   0   6   0   0   0   1   5   0   0   0   0   0   0   0   0   0   0   0   0   0   0   0   0   0   0   0   0  11 90 89 88 70 65 63 61 60 57 53 39 
   6   0   0   0   0   0   0   0   9   0   0   4   0   0   0   0   0   0   0   0   0   0   0   0  10   0   0   0   0   0   0  15 98 96 95 94 93 89 87 82 70 64 60 59 58 52 45 
   7   0   0   5   7   0   6   0   0   0   3   0   0   0   0   0   0   0   0   0   0   0   0   0   0   8   3   0   0   0   0  12 100 94 93 90 87 82 69 65 60 53 46 45 
   3   0   0   0   0   0   0   7   0   0   5   0   8   0   0   0   0   2   0   0   0   9   7   0   0   0   0   6   0   0   6  18 101 100 98 96 94 92 91 90 89 88 79 76 69 66 64 63 59 58 
   8   7   7   0   0   0   7   0   0   0   5   0   0   0   0   0   0   0   0   0   7   3   0   0   7   0   0   0   7   0   0  18 97 94 93 90 88 87 84 82 79 76 70 69 68 65 64 63 59 54 
   6   0   0   0   0   0   0  10   2   0   0   0   0   0   0   0   0   0   0   0   0   0   0   5   0   0   0   0   0   0   0  15 99 98 94 93 90 87 81 77 71 69 68 67 65 63 46 
   4   0   0   0   0   0   0   0   0   0   0   0   0   0   0   6   0  10   0   7   0   0   0   0   0   0   0   0   0   0   0  21 96 95 93 92 90 89 88 87 86 85 84 81 79 77 76 73 72 71 69 68 63 
   1   0   0   0   0   0   0   5   0   0   0   0   0   0   0   0   0   0   0   0   0   0   2   0   0   0   0   0   0   0   0  14 95 93 92 91 90 88 87 79 74 72 65 63 59 53 
   8   0   0   0   0   0   0   0   0   7   6   3   5   0   0   0   7   0   0   0   0   0   0   0   8   0  10   0   0   0   0  15 101 98 97 94 88 87 86 81 79 76 73 68 63 59 51 
   5   0   0   0  10   0   7   0   0   0   0   0   0   0   0   0   7   0   0   0   0   0   7   0   0   0   0   0   0   0   0  11 96 95 90 87 86 82 81 71 68 63 47 
   9   0   0   0   0   0   7   0   0   6  10   0   0   0   0   0   0   0   0   0   0   0   0   0   0   0   0   0   0  10   7  14 97 96 95 92 91 89 88 87 86 84 83 74 59 50 
  10   0  10   0   0   0   0   0   5   0   0   0   0   0   0   0   0   0   0   0   0   0   0   0   3   0   8   0   0   0   7  16 95 93 90 89 87 86 84 81 80 79 77 76 70 69 68 63 
   1   9   0   0   0   0   0   0   0   0   0   0   0   0   0  10   0   0   0   0   0   0   4   0   0   0   0   0   0   0   5  14 96 92 88 87 86 85 83 81 79 78 77 74 70 56 
   4   6   0   0   0   0   0   7   0   0   0   0   0   9   0   0   0   0   0   0   0   0   0   0   0   0   0   0   0   0   0  13 99 94 90 88 86 83 82 79 78 76 74 59 58 
   2   0   0   0   0   0   0   0   0   0   0   7   0   0   0   0   6   0   0   0   0   0   0   0   0   0   0   0   0   0   0  16 100 95 93 91 90 88 86 85 83 81 79 78 76 73 69 68 
   5   0   0   0   0   0   9   0   0   0   0   0   0   0   6   0   0   0   0   0   0   0  10   0   0   0   0   8   7   0   0  14 101 100 90 84 83 82 81 79 78 77 76 75 74 60 
   1   0   0   0   0   0   0   0   0   0   0   0   0   6   0   0   7   7   2   0   0   0   0   0   4   8   0   0   0   0   0  13 96 94 92 91 88 84 83 80 79 76 74 66 64 
   5   0   0   7   0   0   0   0   0   0   0   0   0   8  10   0   0   0   0   3   0   0   0   0   0   0   0   0   0   0   0  13 92 89 87 83 82 81 78 77 76 70 69 68 64 
   7   0   0   6   0   0   0   0   0   0   0   0   0   0   0   0   0   0   0   0   0   0   0   0   0   0   0   0   0   0   3  13 101 96 94 93 92 91 87 83 81 79 78 74 59 
   8   0   0   0   0   0   0   0   0   0   8   0   0   0   0   0   4   0   0   0   9   0   0   6   0   0   0   7   5   0   0  12 97 94 86 85 81 80 79 78 77 74 73 68 
  10   0   0   0   0   0   0   0   0   0   0   0   8   0   0   0   0   0   0   0   0   4   0   0   0   0   0   0   0   0   6  12 101 94 90 89 88 87 85 83 79 78 76 68 
   3   3   0   6   0   0   0   0   0   0   0   9   0   0   0   0   0   0   0   0   0   8   0   0   0   6   0   0   0   0   0   9 92 86 85 80 78 77 76 74 58 
   6   5   0   0   0   0   0   0   4   0   0   0   0   0   0   0   0   0   0   0   0   7   0   9   0   0   0   0   0   0   0  10 97 86 85 84 81 80 79 77 69 68 
   8   0   0   0   0   0   0   0   0   0   0   0   0   0   7   0   0   0   0   0   0   0   0  10   0   0   0   0   0   0   6  11 99 90 89 87 81 79 78 77 76 75 74 
   8   0   0   0   0   0   0   0   0   0   0   0   7   0   8   0   0   0   0   9   0   9   9   0   0   0   0   8   0   0   0   8 97 88 84 81 77 76 74 63 
   6   0   0   0   0   0   0   0   0   0   0   0   0   0   0   0   4   0   0   0   0   0   0   0   0   0   0   0   0   0   5   9 95 91 89 84 79 78 76 75 74 
  10   0   9   0   0   5  10   0   0   0   0   0   0  10   0   0   4   0   0   0   0   0   0   0   6   0   0   0   0   0   8   8 88 84 79 78 77 76 75 69 
   9   0   5   0   0   0   0   0   0   0   0   0   0   0   0   0   0   0   0   0   6   0   0   0   0   0   0   0   0   5   0   7 93 89 84 80 79 69 68 
   5   0   0   0   0   0   0   0   4   0   0   0   0   0   0   0   8   0   9   0   0   5   0   0   0   0   0   0   0   0   0   7 87 85 79 77 76 74 68 
   8   0   0   0   0   0   0   0   0   0   3   0   0   0   0   0   5   0   8   0   0   0   0   0   0   0   0   0   0   0   0   7 85 81 80 79 78 77 76 
   9   0   0   0   0   0   0   0   0   0   0   0   0   0   0   0   9   0   0   0   0   7   0   4   6   9   0   0   0   0   0   6 91 90 82 78 77 69 
   5   8   0   0   0   0   0   0   0   6   0   0   0   0   0   0   0  10   0   0   0   0   0   2   0  10   0   0   0   0   0   6 99 88 79 77 76 71 
   5   0   0   0   0   0   0   0   0   0   0   0   0   0   0   0   0   0   0   0   0   0   5   0   0   0   0   0   0   0   0   3 86 76 58 
   2   0   4   0   0   0   0   0   8   0   9   0   0   0   0   0   0   0   0   0   0   0   0   0   0   0   6   0   0   0   0   6 98 89 83 80 78 74 
   6   0   0   0   0   0   0   0   0   0   0   0   0   0   0   0   7   8   0   0   6   0   0   0   0   0   0   0   0   0   0   6 93 85 83 82 76 74 
   2   0   0   0   0   0   0   0   0   0   0   0   0   0   0   0   0   0   0   0   0   0   0   0   0   0   0   8   6   0   0   5 89 84 82 76 68 
   8   0   0   0   0   6   3   0   0   0   0   0   0   0   0   0   0   0   0   0   0   0   0   0   0   0   0   0   0   0   0   4 82 76 75 69 
   1   0   0   6   0   0   0   0   0   0   0   0   0   0   0   0   0   0   0   0   0   0   0   0   0   0   0   0   0   0   0   3 84 81 68 
   4   6   0   3   0   0   0   6   0   0   8   0   0   0   0   7   6   0   0   0   0   0   0   0   0   0   0   0   0   0   0   3 85 80 77 
   6   0   0   0   0   0   0   0   0   0   0   0   8   0   0   0   0   5   0   0   0   0   0   0   0   0  10   4   0   0   0   3 92 91 80 
   9   0   0   7   7   0   5   0   5   0   8   0   0   0   0   0   0   0   0   0   0   0   0   0   0   0   0   0   0   0   0   3 95 75 74 
   4   0   0   0   0   0   0   5   0   0   0   0   0   0   6   7   0   0   0   0   0   0   0   0   0   0   0   0   0   0   0   3 93 83 77 
   6   7   0   0   0   0   0   0   0   0   0   0   0   0   0   0   6   0   0   0   0   0   0   3   0   0   0   0   0   0   0   2 83 78 
   7   0   0   0   0   0   0   0   0   0   5   0   0   0   3   0   0   0   0  10   0   0   0   0   0   3   0   6   0   9   0   2 86 75 
  10   0   0   0   0   0   0   0   8   0   0   0   0   4   0   0   6   0   0   0   0   0   0   0   0   0   0   0   0   0   0   2 85 75 
   6   0   0   0   0   5   0   0   0   0   0   0   0   0   0   0   0   0   0   0   0   0   0   0   0   0   0   0   0   0   9   2 87 82 
   5   5   6   0   0   0   0   0   0   0   0   0   0   0   0   0   0   0   0   0   0   0   0   0   0   0   0   0   0   0   0   2 82 74 
   5   0   0   0   0   0  10   0   0   0   0   0   0   0   0   4   0   0   0   0   0   0   0   0   0   0   0   0   0   0   0   1 75 
   8   0   0   0   6   0   7   0   0   0   7   0   0   0   7   0   0   0   9   0   0   0   8   0   8   0   0   0   0   0   0   1 74 
   9   6   0   0   0   0   0   0   0   0   0   0   0   0   0   4   0   5   7   0   0   0   0   0   0   6   0   0   0   0   0   1 75 
   1   0   6   0   0   0   0   0   0   0   0   0   0   0   0   0   0   0   0   0   0   0   0   0   0   0   0   0   0   0   0   1 80 
   5   0   5   0   0   0   0   0   0   0   0   0   3   0   0   0   0   0   0   0   0   4   0   0   0   0   0   0   8   0   0   1 82 
  10   0   0   8   0   0   0   0   0   0   0   6   0   0   0   0   8   0   0   0   0   0   0   0   3   0   0   0   0   0   0   1 82 
   4   0   0   0   0   0   0   0   0   0   0   9   0   4   0   0   0   0   0   0   5   0   0   0   0   0   0   0   0   0   0   1 102
   4   0   0   0   0   7   6   4   7   0   0   0   0   0   0   0   0   0   0   0   0   0   0   0   0   0   0   0   0   0   0   1 102
   4   0   0  10   0   0   0   0   0   0   0   0   0   0   0   0   7   0   0   5   9   0   0   0   0   0   0   6   0   0   3   1 102
   6   0   0   0   0   0   6   6   0   6   0   0   0   0   4   0   0   0   0   0   0   0   0   0   0   0   0   6   0   0   0   1 102
   5   0   0   0   0   0   0   0   0   0   0   0   0   0   0   0   5   7   0   0   0   0   0   0   0   0   0   0   0   0   6   1 102
   5   0   3   0   0   0   5   0   0   0   0   0   0   0   0   0   0   4   0   0   0   0   0   0   0   0   0   0   0   2   0   1 102
  10  10   0   0   0   0   0   7   0   0   0  10   0   0   0   0   0   0   0   0   0   0   0   6   0   4   0   0   0   0   0   1 102
   8   0   0   0   0   0   0   0   0   0   0   0   0   0   0   0   0   0   0   0   0   0   0   9   0   0   0   6   0   0   0   1 102
   6   0   0   0   0   0   0   0   0   0   0   0   0   0   0   0   0   0   0   0   0   0   0   0   0   0   0   0   0   0   0   1 102
   1   0   0   0   0   0   0   0   0   8   0   0   0   0   7   0   0   0   0   0   0   0   0   0   0   5   0   0   0   0   0   1 102
   8   0   0   0   0   0   4   0   0   0   4   0   0   0   0   0   0   0   0   0   7   0   9   0   0   0   0   0   0   0   0   1 102
   4   0   0   0   0   0   7   0  10   0  10   0   0   0   0   0   0   0   0   0   0   0   0   0   0   0   0   4   0   0   0   1 102
   5   0   0   0   0   0   0   0   0   0   0   0   0   0   0   0   0   0   0   8   7   0   0   0   0   0   3   0   0   0   0   1 102
   7   0   0   0   0   0   2   5   0   0   0   0   0   0   0   0   0   0   0   0   0   0   0   0   0   0   0   5   0   0   0   1 102
  10   0  10   0   0   0   0   0   0   0   0   0   0   0   0   0   0   0   0   0   0   0   0   0   0   4   0   0   0   0   0   1 102
   6   0   5   0   0   0   0   0   0   0   0   0   0   8   0   0   0   0   0   0   0   7   0   0   6   0   0   0   3   0  10   1 102
  10   0   0   0   0   0   0   0   0   0   0   8   0   0   0   0   0   0   0   0   0   0   0  10   0   9   6   0   0   7   0   1 102
   8   4   7   0   0   0   0   0   0   0   0   0   0   0   0   0   0   0   6   5   0   0   0   5   0   0   0   0   0   0   0   1 102
   3   0  10   0   5   0   0   0   0   0   0   2   0   0   0   0   0   0   0   0   0   0   0   0   0   4   0   0   0   0   0   1 102
   4   0   0   0   0   0   0   0   0   0   8   0   0   0   0   0   0   0   7   3   0   0   5   0   0   0   0   0   6   8   0   1 102
   4   0   0   0   0   0   7   7   0   0   0   0   0   0   0   0   0   0   0   0   0   8   0   0   0   0   0   0   0   0   0   1 102
   7   0   0   0   0   0   0   0   0   6   0   0   0   0   0   5   0   0   0   0   0   9   0   0   0   0   0   0   0   0   0   1 102
   3   0   0   0   0   9   0   0   0   0   0   0   0   0   0   0   0   0   0   0   0   0   0   3   0   7   0   0   6   0   0   1 102
   2   0   0   0   0   5   0   0   0   0   0   0   0   0   0   0   0   0   0   5   0   0   9   0   9   0   0   5  10   0   0   1 102
   4   0   0   0   0   0   0   0   0   0   0   0   0   0   0   0   0   0   0   0   4   0   0   0   0   0   0   0   0   0   9   1 102
   6   0   0   0   0   0   5   0   0   0   0   0   8   0   9   0   0   0   0   0   0   0   0   0   0   0   0   7   0   0   0   1 102
   8   0   0   0   0   4   5   0   5   0   0   0   0   8   0   0   0   0   0   0   0   0   0   0   0   0   0   0   0   0   0   1 102
   4   0   2   0   0  10   0   0   0   8   0   0   0   0   0   0   0   0   5   0   0   0   0   0   0   0   6   0   7   0   0   1 102
   0   0   0   0   0   0   0   0   0   0   0   0   0   0   0   0   0   0   0   0   0   0   0   0   0   0   0   0   0   0   0   0 
